50
20561

374 137
559 317
461 296
788 805
738 581
537 270
64 191
982 628
397 862
628 481
179 462
546 95
272 633
248 499
832 267
94 628
708 325
458 963
737 18
797 788
600 43
951 662
668 748
673 270
227 550
685 555
351 502
514 483
379 42
961 167
193 648
796 936
152 684
566 697
430 340
591 152
508 774
98 633
985 370
246 657
291 363
862 338
41 561
70 62
96 643
758 819
313 424
157 956
891 211
679 59
